MSW07
Position Depot: Center
Horizon for Depot: Small
Position of customers: Mixt
Distribution of the demand: Large
Width of time windows: Wide
Distribution of the service: Small

VEHICLE 
NUMBER 	 CAPACITY 
 8 	 	 299 
 
CUSTOMER
CUST NO. 	 XCOORD.  	 YCOORD. 	 DEMAND 	 READY TIME 	 DUE DATE 	 SERVICE TIME 
 0 	 	 500 	 	 500 	 	 0 	 	 0 	 	 2236 	 	 0 
  1 	 	 929 	 	 615 	 	 78 	 	 1611 	 	 1866 	 	 67 
  2 	 	 88 	 	 581 	 	 88 	 	 522 	 	 1018 	 	 78 
  3 	 	 94 	 	 132 	 	 28 	 	 354 	 	 602 	 	 76 
  4 	 	 403 	 	 448 	 	 76 	 	 1432 	 	 1688 	 	 90 
  5 	 	 54 	 	 135 	 	 33 	 	 1850 	 	 2231 	 	 74 
  6 	 	 969 	 	 540 	 	 40 	 	 1065 	 	 1327 	 	 65 
  7 	 	 82 	 	 98 	 	 66 	 	 409 	 	 637 	 	 85 
  8 	 	 44 	 	 74 	 	 38 	 	 500 	 	 980 	 	 98 
  9 	 	 519 	 	 410 	 	 49 	 	 -144 	 	 165 	 	 58 
  10 	 	 284 	 	 539 	 	 22 	 	 94 	 	 443 	 	 54 
  11 	 	 372 	 	 409 	 	 17 	 	 601 	 	 1019 	 	 93 
  12 	 	 115 	 	 573 	 	 73 	 	 1482 	 	 1905 	 	 99 
  13 	 	 975 	 	 582 	 	 51 	 	 960 	 	 1373 	 	 83 
  14 	 	 167 	 	 73 	 	 65 	 	 732 	 	 1093 	 	 96 
  15 	 	 136 	 	 178 	 	 59 	 	 675 	 	 1134 	 	 63 
  16 	 	 917 	 	 585 	 	 51 	 	 750 	 	 1080 	 	 60 
  17 	 	 367 	 	 393 	 	 46 	 	 184 	 	 620 	 	 59 
  18 	 	 21 	 	 176 	 	 64 	 	 447 	 	 898 	 	 55 
  19 	 	 404 	 	 426 	 	 35 	 	 510 	 	 824 	 	 86 
  20 	 	 404 	 	 407 	 	 15 	 	 863 	 	 1163 	 	 97 
  21 	 	 97 	 	 85 	 	 13 	 	 1417 	 	 1840 	 	 60 
  22 	 	 100 	 	 150 	 	 17 	 	 631 	 	 1070 	 	 68 
  23 	 	 95 	 	 475 	 	 56 	 	 1830 	 	 2236 	 	 61 
  24 	 	 900 	 	 577 	 	 19 	 	 501 	 	 739 	 	 74 
  25 	 	 974 	 	 344 	 	 98 	 	 654 	 	 1005 	 	 63 
  26 	 	 238 	 	 821 	 	 63 	 	 1300 	 	 1636 	 	 74 
  27 	 	 554 	 	 55 	 	 88 	 	 241 	 	 660 	 	 64 
  28 	 	 108 	 	 684 	 	 76 	 	 166 	 	 658 	 	 70 
  29 	 	 418 	 	 951 	 	 67 	 	 863 	 	 1187 	 	 93 
  30 	 	 645 	 	 973 	 	 27 	 	 1493 	 	 1875 	 	 59 
  31 	 	 780 	 	 540 	 	 87 	 	 370 	 	 662 	 	 50 
  32 	 	 353 	 	 525 	 	 21 	 	 1027 	 	 1494 	 	 83 
  33 	 	 528 	 	 369 	 	 72 	 	 39 	 	 531 	 	 70 
  34 	 	 497 	 	 906 	 	 2 	 	 1532 	 	 1877 	 	 88 
  35 	 	 917 	 	 141 	 	 91 	 	 109 	 	 605 	 	 58 
  36 	 	 42 	 	 116 	 	 70 	 	 1553 	 	 1813 	 	 58 
  37 	 	 732 	 	 346 	 	 82 	 	 819 	 	 1199 	 	 55 
  38 	 	 307 	 	 155 	 	 25 	 	 929 	 	 1181 	 	 97 
  39 	 	 531 	 	 45 	 	 45 	 	 1416 	 	 1656 	 	 77 
  40 	 	 298 	 	 88 	 	 61 	 	 722 	 	 1013 	 	 53 
  41 	 	 706 	 	 909 	 	 34 	 	 8 	 	 503 	 	 85 
  42 	 	 753 	 	 182 	 	 47 	 	 1120 	 	 1616 	 	 63 
  43 	 	 741 	 	 561 	 	 27 	 	 1822 	 	 2052 	 	 81 
  44 	 	 377 	 	 766 	 	 56 	 	 1025 	 	 1392 	 	 60 
  45 	 	 30 	 	 28 	 	 19 	 	 1483 	 	 1883 	 	 98 
  46 	 	 300 	 	 580 	 	 22 	 	 1211 	 	 1538 	 	 92 
  47 	 	 153 	 	 295 	 	 12 	 	 817 	 	 1278 	 	 99 
  48 	 	 636 	 	 131 	 	 82 	 	 1091 	 	 1456 	 	 67 
  49 	 	 714 	 	 422 	 	 46 	 	 38 	 	 250 	 	 51 
  50 	 	 849 	 	 522 	 	 68 	 	 1055 	 	 1307 	 	 84 
 